
Gurobi 6.5.2 (linux64) logging started Wed Aug 31 10:35:29 2016

Optimize a model with 101 rows, 908 columns and 2109 nonzeros
Coefficient statistics:
  Matrix range    [1e+00, 2e+00]
  Objective range [2e+00, 1e+02]
  Bounds range    [1e+00, 1e+00]
  RHS range       [1e+00, 1e+00]
Found heuristic solution: objective 1392
Presolve removed 26 rows and 2 columns
Presolve time: 0.00s
Presolved: 75 rows, 906 columns, 1938 nonzeros
Variable types: 0 continuous, 906 integer (906 binary)

Root relaxation: objective 5.775000e+02, 72 iterations, 0.00 seconds

    Nodes    |    Current Node    |     Objective Bounds      |     Work
 Expl Unexpl |  Obj  Depth IntInf | Incumbent    BestBd   Gap | It/Node Time

     0     0  577.50000    0   14 1392.00000  577.50000  58.5%     -    0s
H    0     0                     758.0000000  577.50000  23.8%     -    0s
H    0     0                     674.0000000  577.50000  14.3%     -    0s
H    0     0                     619.0000000  577.50000  6.70%     -    0s
     0     0  591.33333    0   19  619.00000  591.33333  4.47%     -    0s
     0     0  591.33333    0   14  619.00000  591.33333  4.47%     -    0s
H    0     0                     615.0000000  591.33333  3.85%     -    0s
     0     0  595.50000    0   18  615.00000  595.50000  3.17%     -    0s
     0     0  595.75000    0   23  615.00000  595.75000  3.13%     -    0s
     0     0  604.75000    0   15  615.00000  604.75000  1.67%     -    0s
     0     0  604.75000    0   14  615.00000  604.75000  1.67%     -    0s
     0     0  604.75000    0   20  615.00000  604.75000  1.67%     -    0s
     0     0  604.75000    0   15  615.00000  604.75000  1.67%     -    0s
     0     0  609.00000    0    5  615.00000  609.00000  0.98%     -    0s
     0     0  609.00000    0   14  615.00000  609.00000  0.98%     -    0s
     0     0  609.00000    0   12  615.00000  609.00000  0.98%     -    0s
     0     0  609.00000    0   12  615.00000  609.00000  0.98%     -    0s
H    0     0                     614.0000000  609.00000  0.81%     -    0s
     0     0  609.14286    0   17  614.00000  609.14286  0.79%     -    0s
H    0     0                     611.0000000  609.14286  0.30%     -    0s
     0     0  609.16667    0   17  611.00000  609.16667  0.30%     -    0s
     0     0  609.50000    0    6  611.00000  609.50000  0.25%     -    0s
     0     0  609.50000    0    5  611.00000  609.50000  0.25%     -    0s
     0     0  609.50000    0    2  611.00000  609.50000  0.25%     -    0s
     0     0  609.50000    0    8  611.00000  609.50000  0.25%     -    0s
     0     0  609.50000    0   18  611.00000  609.50000  0.25%     -    0s
     0     0  609.50000    0    8  611.00000  609.50000  0.25%     -    0s
     0     0  609.50000    0    6  611.00000  609.50000  0.25%     -    0s

Cutting planes:
  Gomory: 4
  Cover: 10
  Clique: 9
  MIR: 2

Explored 0 nodes (520 simplex iterations) in 0.08 seconds
Thread count was 8 (of 8 available processors)

Optimal solution found (tolerance 1.00e-04)
Best objective 6.110000000000e+02, best bound 6.110000000000e+02, gap 0.0%
